[ti. 04. april 15:01:42 +0200 2023]  ./input/alternate_g_np/50-1-3.gcc
Set parameter Username
Academic license - for non-commercial use only - expires 2024-03-28
Set parameter TimeLimit to value 1800
Set parameter PreCrush to value 1
Set parameter LazyConstraints to value 1
Gurobi Optimizer version 10.0.1 build v10.0.1rc0 (linux64)

CPU model: AMD Ryzen 9 5950X 16-Core Processor, instruction set [SSE2|AVX|AVX2]
Thread count: 16 physical cores, 32 logical processors, using up to 32 threads

Optimize a model with 52 rows, 150 columns and 350 nonzeros
Model fingerprint: 0x4e91784c
Variable types: 0 continuous, 150 integer (150 binary)
Coefficient statistics:
  Matrix range     [1e+00, 1e+00]
  Objective range  [1e+00, 1e+02]
  Bounds range     [1e+00, 1e+00]
  RHS range        [1e+00, 1e+00]
Presolve time: 0.00s
Presolved: 52 rows, 150 columns, 350 nonzeros
Variable types: 0 continuous, 150 integer (150 binary)

Root relaxation: objective 2.382000e+03, 2 iterations, 0.00 seconds (0.00 work units)

    Nodes    |    Current Node    |     Objective Bounds      |     Work
 Expl Unexpl |  Obj  Depth IntInf | Incumbent    BestBd   Gap | It/Node Time

     0     0 2382.00000    0    2          - 2382.00000      -     -    0s
     0     0 2382.00000    0    8          - 2382.00000      -     -    0s
     0     0 2382.00000    0    8          - 2382.00000      -     -    0s
     0     0 2382.00000    0    -          - 2382.00000      -     -    0s
     0     0 2382.00000    0   11          - 2382.00000      -     -    0s
     0     2 2382.00000    0    8          - 2382.00000      -     -    0s
*41142 12221              29     254.0000000 1508.00000   494%   9.1    3s
*43420 12718              48     266.0000000 1491.00000   461%   9.5    3s
*44090 12861              31     311.0000000 1486.00000   378%   9.8    3s
*44630 12825              41     320.0000000 1484.00000   364%   9.9    3s
*45567 12902              26     350.0000000 1476.50000   322%  10.1    3s
*46669 12935              25     371.0000000 1469.00000   296%  10.3    3s
*49917 13335              36     376.0000000 1449.00000   285%  11.0    3s
 58744 15558  766.55556   38   52  376.00000  863.00000   130%  11.6    5s
*64570 14809              58     393.0000000  743.50000  89.2%  11.6    5s
*66203 13196              28     435.0000000  722.66667  66.1%  11.7    5s
*70593  9440              46     453.0000000  612.00000  35.1%  11.7    6s
*74378  4770              34     456.0000000  526.00000  15.4%  11.6    6s

Cutting planes:
  User: 54
  Lazy constraints: 1066

Explored 75546 nodes (869372 simplex iterations) in 6.40 seconds (2.82 work units)
Thread count was 32 (of 32 available processors)

Solution count 10: 456 453 435 ... 266

Optimal solution found (tolerance 1.00e-04)
Best objective 4.560000000000e+02, best bound 4.560000000000e+02, gap 0.0000%

User-callback calls 155180, time in user-callback 1.25 sec
Minimal separator inequalities added: 62826
Indegree inequalities added: 0
Passed solution check
[ti. 04. april 15:01:49 +0200 2023]  done

